\ Model opt_adjust
\ LP format - for model browsing. Use MPS format to capture full model detail.
Minimize
  x[0,0] + x[0,1] + x[1,0] + x[1,1] + x[2,0] + x[2,1] + x[3,0] + x[3,1]
   + x[4,0] + x[4,1] + x[5,0] + x[5,1] + x[6,0] + x[6,1]
Subject To
 qc0: [ x[0,0] * y[0] + x[1,0] * y[1] + x[2,0] * y[2] + x[3,0] * y[3]
   + x[4,0] * y[4] + x[5,0] * y[5] + x[6,0] * y[6] ] = 0
 qc1: [ x[0,1] * y[0] + x[1,1] * y[1] + x[2,1] * y[2] + x[3,1] * y[3]
   + x[4,1] * y[4] + x[5,1] * y[5] + x[6,1] * y[6] ] = 5
 qc2: - 17 y[0] + [ 0.6 x[0,0] * y[0] + x[0,1] * y[0] ] = 0
 qc3: - 11 y[1] + [ 0.6 x[1,0] * y[1] + x[1,1] * y[1] ] = 0
 qc4: - 21 y[2] + [ 0.6 x[2,0] * y[2] + x[2,1] * y[2] ] = 0
 qc5: - 7 y[3] + [ 0.6 x[3,0] * y[3] + x[3,1] * y[3] ] = 0
 qc6: - 5 y[4] + [ 0.6 x[4,0] * y[4] + x[4,1] * y[4] ] = 0
 qc7: - 25 y[5] + [ 0.6 x[5,0] * y[5] + x[5,1] * y[5] ] = 0
 qc8: - 10 y[6] + [ 0.6 x[6,0] * y[6] + x[6,1] * y[6] ] = 0
Bounds
 x[0,0] >= 12
 x[0,1] >= 5
 x[1,0] >= 15
 x[1,1] >= 2
 x[2,0] >= 3
 x[2,1] >= 17
 x[3,0] >= -15
 x[3,1] >= 16
 x[4,0] >= 7
 x[4,1] >= -17
 x[5,0] >= -11
 x[5,1] >= -8
 x[6,0] >= 13
 x[6,1] >= 2
End
